RLT08
Position Depot: Random
Horizon for Depot: Large
Position of customers: Random
Distribution of the demand: Medium
Width of time windows: Tight
Distribution of the service: Small

VEHICLE 
NUMBER 	 CAPACITY 
 8 	 	 235 
 
CUSTOMER
CUST NO. 	 XCOORD.  	 YCOORD. 	 DEMAND 	 READY TIME 	 DUE DATE 	 SERVICE TIME 
 0 	 	 182 	 	 690 	 	 0 	 	 0 	 	 3284 	 	 0 
  1 	 	 430 	 	 95 	 	 6 	 	 1446 	 	 1518 	 	 83 
  2 	 	 696 	 	 470 	 	 9 	 	 2804 	 	 2855 	 	 62 
  3 	 	 285 	 	 365 	 	 1 	 	 712 	 	 824 	 	 77 
  4 	 	 332 	 	 377 	 	 88 	 	 1720 	 	 1888 	 	 95 
  5 	 	 964 	 	 761 	 	 9 	 	 3093 	 	 3152 	 	 90 
  6 	 	 214 	 	 792 	 	 7 	 	 978 	 	 1090 	 	 53 
  7 	 	 318 	 	 96 	 	 86 	 	 524 	 	 684 	 	 73 
  8 	 	 529 	 	 85 	 	 2 	 	 1726 	 	 1898 	 	 60 
  9 	 	 245 	 	 586 	 	 1 	 	 761 	 	 864 	 	 70 
  10 	 	 611 	 	 93 	 	 7 	 	 2014 	 	 2160 	 	 92 
  11 	 	 583 	 	 350 	 	 5 	 	 2036 	 	 2177 	 	 62 
  12 	 	 143 	 	 971 	 	 5 	 	 2184 	 	 2258 	 	 96 
  13 	 	 499 	 	 996 	 	 7 	 	 2894 	 	 2991 	 	 92 
  14 	 	 33 	 	 86 	 	 1 	 	 1563 	 	 1652 	 	 87 
  15 	 	 754 	 	 984 	 	 9 	 	 557 	 	 707 	 	 85 
  16 	 	 197 	 	 533 	 	 6 	 	 2749 	 	 2949 	 	 76 
  17 	 	 178 	 	 946 	 	 5 	 	 883 	 	 1028 	 	 89 
  18 	 	 532 	 	 8 	 	 5 	 	 1089 	 	 1267 	 	 98 
  19 	 	 834 	 	 274 	 	 59 	 	 758 	 	 927 	 	 52 
  20 	 	 815 	 	 789 	 	 2 	 	 637 	 	 704 	 	 81 
  21 	 	 138 	 	 498 	 	 7 	 	 893 	 	 956 	 	 76 
  22 	 	 173 	 	 53 	 	 68 	 	 1829 	 	 1890 	 	 59 
  23 	 	 515 	 	 926 	 	 4 	 	 806 	 	 897 	 	 63 
  24 	 	 129 	 	 19 	 	 1 	 	 2995 	 	 3148 	 	 89 
  25 	 	 376 	 	 369 	 	 3 	 	 1253 	 	 1385 	 	 84 
  26 	 	 705 	 	 347 	 	 6 	 	 1810 	 	 1901 	 	 55 
  27 	 	 940 	 	 15 	 	 8 	 	 2777 	 	 2853 	 	 62 
  28 	 	 399 	 	 636 	 	 10 	 	 390 	 	 507 	 	 83 
  29 	 	 446 	 	 44 	 	 8 	 	 855 	 	 916 	 	 85 
  30 	 	 2 	 	 716 	 	 5 	 	 1689 	 	 1755 	 	 71 
  31 	 	 353 	 	 931 	 	 87 	 	 1611 	 	 1676 	 	 88 
  32 	 	 934 	 	 672 	 	 4 	 	 736 	 	 827 	 	 78 
  33 	 	 887 	 	 54 	 	 7 	 	 2805 	 	 2882 	 	 85 
  34 	 	 877 	 	 33 	 	 8 	 	 1000 	 	 1052 	 	 85 
  35 	 	 8 	 	 862 	 	 1 	 	 2149 	 	 2207 	 	 82 
  36 	 	 659 	 	 606 	 	 4 	 	 2365 	 	 2526 	 	 95 
  37 	 	 110 	 	 498 	 	 3 	 	 2904 	 	 3008 	 	 65 
  38 	 	 85 	 	 671 	 	 63 	 	 612 	 	 739 	 	 55 
  39 	 	 80 	 	 711 	 	 2 	 	 1784 	 	 1900 	 	 73 
  40 	 	 253 	 	 144 	 	 4 	 	 1704 	 	 1773 	 	 73 
  41 	 	 541 	 	 546 	 	 1 	 	 3077 	 	 3265 	 	 93 
  42 	 	 44 	 	 285 	 	 85 	 	 2955 	 	 3154 	 	 80 
  43 	 	 924 	 	 426 	 	 2 	 	 1376 	 	 1511 	 	 82 
  44 	 	 515 	 	 605 	 	 5 	 	 575 	 	 773 	 	 68 
  45 	 	 875 	 	 822 	 	 81 	 	 2020 	 	 2152 	 	 82 
  46 	 	 661 	 	 627 	 	 1 	 	 465 	 	 531 	 	 69 
  47 	 	 629 	 	 431 	 	 6 	 	 1245 	 	 1442 	 	 55 
  48 	 	 721 	 	 150 	 	 85 	 	 2239 	 	 2401 	 	 82 
  49 	 	 427 	 	 230 	 	 5 	 	 2963 	 	 3119 	 	 71 
  50 	 	 671 	 	 319 	 	 2 	 	 2908 	 	 2983 	 	 78 
  51 	 	 124 	 	 742 	 	 6 	 	 1088 	 	 1168 	 	 70 
  52 	 	 391 	 	 989 	 	 9 	 	 2928 	 	 3114 	 	 78 
  53 	 	 748 	 	 816 	 	 2 	 	 1971 	 	 2108 	 	 86 
  54 	 	 127 	 	 329 	 	 99 	 	 308 	 	 499 	 	 65 
  55 	 	 507 	 	 248 	 	 6 	 	 511 	 	 603 	 	 53 
  56 	 	 15 	 	 438 	 	 5 	 	 2213 	 	 2325 	 	 72 
  57 	 	 149 	 	 702 	 	 97 	 	 3099 	 	 3167 	 	 90 
  58 	 	 958 	 	 192 	 	 3 	 	 3068 	 	 3209 	 	 77 
  59 	 	 975 	 	 696 	 	 63 	 	 769 	 	 872 	 	 75 
  60 	 	 774 	 	 873 	 	 3 	 	 895 	 	 1063 	 	 59 
  61 	 	 629 	 	 635 	 	 89 	 	 3093 	 	 3215 	 	 86 
  62 	 	 331 	 	 164 	 	 6 	 	 2125 	 	 2321 	 	 89 
  63 	 	 288 	 	 246 	 	 62 	 	 622 	 	 744 	 	 52 
  64 	 	 145 	 	 133 	 	 7 	 	 475 	 	 614 	 	 95 
  65 	 	 459 	 	 882 	 	 4 	 	 547 	 	 736 	 	 72 
  66 	 	 752 	 	 178 	 	 5 	 	 1453 	 	 1588 	 	 53 
  67 	 	 530 	 	 312 	 	 10 	 	 1936 	 	 1999 	 	 79 
  68 	 	 646 	 	 795 	 	 2 	 	 471 	 	 523 	 	 99 
  69 	 	 44 	 	 16 	 	 4 	 	 1461 	 	 1563 	 	 78 
  70 	 	 45 	 	 720 	 	 5 	 	 724 	 	 917 	 	 99 
  71 	 	 183 	 	 197 	 	 62 	 	 1428 	 	 1614 	 	 63 
  72 	 	 745 	 	 138 	 	 2 	 	 1240 	 	 1331 	 	 84 
  73 	 	 823 	 	 642 	 	 8 	 	 519 	 	 707 	 	 80 
  74 	 	 69 	 	 13 	 	 10 	 	 1401 	 	 1539 	 	 76 
  75 	 	 945 	 	 146 	 	 2 	 	 1828 	 	 1961 	 	 60 
  76 	 	 662 	 	 71 	 	 9 	 	 1793 	 	 1843 	 	 92 
  77 	 	 773 	 	 621 	 	 5 	 	 1211 	 	 1276 	 	 80 
  78 	 	 486 	 	 62 	 	 1 	 	 1958 	 	 2113 	 	 52 
  79 	 	 249 	 	 119 	 	 9 	 	 2117 	 	 2174 	 	 87 
  80 	 	 907 	 	 315 	 	 51 	 	 894 	 	 1079 	 	 95 
  81 	 	 651 	 	 394 	 	 6 	 	 2942 	 	 2993 	 	 63 
  82 	 	 630 	 	 922 	 	 4 	 	 2874 	 	 3039 	 	 82 
  83 	 	 787 	 	 50 	 	 84 	 	 2497 	 	 2616 	 	 91 
  84 	 	 34 	 	 959 	 	 56 	 	 1586 	 	 1660 	 	 53 
  85 	 	 506 	 	 959 	 	 3 	 	 368 	 	 543 	 	 66 
  86 	 	 186 	 	 61 	 	 8 	 	 595 	 	 691 	 	 71 
  87 	 	 999 	 	 477 	 	 3 	 	 2822 	 	 2996 	 	 97 
  88 	 	 383 	 	 263 	 	 98 	 	 1131 	 	 1304 	 	 61 
  89 	 	 676 	 	 309 	 	 3 	 	 958 	 	 1034 	 	 97 
  90 	 	 398 	 	 78 	 	 2 	 	 986 	 	 1092 	 	 61 
  91 	 	 780 	 	 703 	 	 8 	 	 525 	 	 657 	 	 83 
  92 	 	 559 	 	 67 	 	 7 	 	 617 	 	 801 	 	 88 
  93 	 	 114 	 	 479 	 	 5 	 	 1476 	 	 1645 	 	 80 
  94 	 	 388 	 	 392 	 	 6 	 	 3185 	 	 3237 	 	 54 
  95 	 	 177 	 	 836 	 	 77 	 	 89 	 	 160 	 	 96 
  96 	 	 397 	 	 702 	 	 6 	 	 180 	 	 236 	 	 82 
  97 	 	 668 	 	 0 	 	 9 	 	 763 	 	 928 	 	 69 
  98 	 	 731 	 	 416 	 	 10 	 	 757 	 	 916 	 	 70 
  99 	 	 503 	 	 794 	 	 7 	 	 2696 	 	 2753 	 	 86 
  100 	 	 725 	 	 740 	 	 9 	 	 506 	 	 599 	 	 99 
 